NAME          
ROWS
 N  OBJ
 L  expansion_budget 
 L  PR_ub_{101} 
 L  PR_ub_{102} 
 L  PR_ub_{103} 
 L  PR_ub_{104} 
 L  PR_ub_{105} 
 L  PR_ub_{106} 
 L  PR_ub_{107} 
 L  PR_ub_{108} 
 L  PR_ub_{109} 
 L  PR_ub_{110} 
 L  PR_ub_{111} 
 L  PR_ub_{112} 
 L  PR_ub_{113} 
 L  PR_ub_{114} 
 L  PR_ub_{115} 
 L  PR_ub_{116} 
 L  PR_ub_{117} 
 L  PR_ub_{118} 
 L  PR_ub_{119} 
 L  PR_ub_{120} 
 L  PR_ub_{121} 
 L  PR_ub_{122} 
 L  PR_ub_{123} 
 L  PR_ub_{124} 
 G  ER_lb_{101} 
 G  PR_lb_{101} 
 G  ER_lb_{102} 
 G  PR_lb_{102} 
 G  ER_lb_{103} 
 G  PR_lb_{103} 
 G  ER_lb_{104} 
 G  PR_lb_{104} 
 G  ER_lb_{105} 
 G  PR_lb_{105} 
 G  ER_lb_{106} 
 G  PR_lb_{106} 
 G  ER_lb_{107} 
 G  PR_lb_{107} 
 G  ER_lb_{108} 
 G  PR_lb_{108} 
 G  ER_lb_{109} 
 G  PR_lb_{109} 
 G  ER_lb_{110} 
 G  PR_lb_{110} 
 G  ER_lb_{111} 
 G  PR_lb_{111} 
 G  ER_lb_{112} 
 G  PR_lb_{112} 
 G  ER_lb_{113} 
 G  PR_lb_{113} 
 G  ER_lb_{114} 
 G  PR_lb_{114} 
 G  ER_lb_{115} 
 G  PR_lb_{115} 
 G  ER_lb_{116} 
 G  PR_lb_{116} 
 G  ER_lb_{117} 
 G  PR_lb_{117} 
 G  ER_lb_{118} 
 G  PR_lb_{118} 
 G  ER_lb_{119} 
 G  PR_lb_{119} 
 G  ER_lb_{120} 
 G  PR_lb_{120} 
 G  ER_lb_{121} 
 G  PR_lb_{121} 
 G  ER_lb_{122} 
 G  PR_lb_{122} 
 G  ER_lb_{123} 
 G  PR_lb_{123} 
 G  ER_lb_{124} 
 G  PR_lb_{124} 
COLUMNS
    PR_{101}  expansion_budget 56.1258926
    PR_{101}  PR_ub_{101} 1
    PR_{101}  PR_lb_{101} 1
    PR_{101}  OBJ       56.1258926
    ER_{101}  expansion_budget 0.3000315
    ER_{101}  PR_ub_{101} -0.8
    ER_{101}  ER_lb_{101} 1
    ER_{101}  PR_lb_{101} -0.2
    ER_{101}  OBJ       0.3000315
    PR_{102}  expansion_budget 56.12477019999999 
    PR_{102}  PR_ub_{102} 1
    PR_{102}  PR_lb_{102} 1
    PR_{102}  OBJ       56.12477019999999 
    ER_{102}  expansion_budget 0.30002549999999995 
    ER_{102}  PR_ub_{102} -0.8
    ER_{102}  ER_lb_{102} 1
    ER_{102}  PR_lb_{102} -0.2
    ER_{102}  OBJ       0.30002549999999995 
    PR_{103}  expansion_budget 56.12533139999999 
    PR_{103}  PR_ub_{103} 1
    PR_{103}  PR_lb_{103} 1
    PR_{103}  OBJ       56.12533139999999 
    ER_{103}  expansion_budget 0.3000285
    ER_{103}  PR_ub_{103} -0.8
    ER_{103}  ER_lb_{103} 1
    ER_{103}  PR_lb_{103} -0.2
    ER_{103}  OBJ       0.3000285
    PR_{104}  expansion_budget 56.115229799999994 
    PR_{104}  PR_ub_{104} 1
    PR_{104}  PR_lb_{104} 1
    PR_{104}  OBJ       56.115229799999994 
    ER_{104}  expansion_budget 0.2999745
    ER_{104}  PR_ub_{104} -0.8
    ER_{104}  ER_lb_{104} 1
    ER_{104}  PR_lb_{104} -0.2
    ER_{104}  OBJ       0.2999745
    PR_{105}  expansion_budget 56.12364779999999 
    PR_{105}  PR_ub_{105} 1
    PR_{105}  PR_lb_{105} 1
    PR_{105}  OBJ       56.12364779999999 
    ER_{105}  expansion_budget 0.3000195
    ER_{105}  PR_ub_{105} -0.8
    ER_{105}  ER_lb_{105} 1
    ER_{105}  PR_lb_{105} -0.2
    ER_{105}  OBJ       0.3000195
    PR_{106}  expansion_budget 56.1208418
    PR_{106}  PR_ub_{106} 1
    PR_{106}  PR_lb_{106} 1
    PR_{106}  OBJ       56.1208418
    ER_{106}  expansion_budget 0.3000045
    ER_{106}  PR_ub_{106} -0.8
    ER_{106}  ER_lb_{106} 1
    ER_{106}  PR_lb_{106} -0.2
    ER_{106}  OBJ       0.3000045
    PR_{107}  expansion_budget 56.1146686
    PR_{107}  PR_ub_{107} 1
    PR_{107}  PR_lb_{107} 1
    PR_{107}  OBJ       56.1146686
    ER_{107}  expansion_budget 0.2999715
    ER_{107}  PR_ub_{107} -0.8
    ER_{107}  ER_lb_{107} 1
    ER_{107}  PR_lb_{107} -0.2
    ER_{107}  OBJ       0.2999715
    PR_{108}  expansion_budget 56.1225254
    PR_{108}  PR_ub_{108} 1
    PR_{108}  PR_lb_{108} 1
    PR_{108}  OBJ       56.1225254
    ER_{108}  expansion_budget 0.3000135
    ER_{108}  PR_ub_{108} -0.8
    ER_{108}  ER_lb_{108} 1
    ER_{108}  PR_lb_{108} -0.2
    ER_{108}  OBJ       0.3000135
    PR_{109}  expansion_budget 56.118596999999994 
    PR_{109}  PR_ub_{109} 1
    PR_{109}  PR_lb_{109} 1
    PR_{109}  OBJ       56.118596999999994 
    ER_{109}  expansion_budget 0.2999925
    ER_{109}  PR_ub_{109} -0.8
    ER_{109}  ER_lb_{109} 1
    ER_{109}  PR_lb_{109} -0.2
    ER_{109}  OBJ       0.2999925
    PR_{110}  expansion_budget 56.1163522
    PR_{110}  PR_ub_{110} 1
    PR_{110}  PR_lb_{110} 1
    PR_{110}  OBJ       56.1163522
    ER_{110}  expansion_budget 0.2999805
    ER_{110}  PR_ub_{110} -0.8
    ER_{110}  ER_lb_{110} 1
    ER_{110}  PR_lb_{110} -0.2
    ER_{110}  OBJ       0.2999805
    PR_{111}  expansion_budget 56.1202806
    PR_{111}  PR_ub_{111} 1
    PR_{111}  PR_lb_{111} 1
    PR_{111}  OBJ       56.1202806
    ER_{111}  expansion_budget 0.3000015
    ER_{111}  PR_ub_{111} -0.8
    ER_{111}  ER_lb_{111} 1
    ER_{111}  PR_lb_{111} -0.2
    ER_{111}  OBJ       0.3000015
    PR_{112}  expansion_budget 56.12308659999999 
    PR_{112}  PR_ub_{112} 1
    PR_{112}  PR_lb_{112} 1
    PR_{112}  OBJ       56.12308659999999 
    ER_{112}  expansion_budget 0.30001649999999996 
    ER_{112}  PR_ub_{112} -0.8
    ER_{112}  ER_lb_{112} 1
    ER_{112}  PR_lb_{112} -0.2
    ER_{112}  OBJ       0.30001649999999996 
    PR_{113}  expansion_budget 56.119719399999994 
    PR_{113}  PR_ub_{113} 1
    PR_{113}  PR_lb_{113} 1
    PR_{113}  OBJ       56.119719399999994 
    ER_{113}  expansion_budget 0.2999985
    ER_{113}  PR_ub_{113} -0.8
    ER_{113}  ER_lb_{113} 1
    ER_{113}  PR_lb_{113} -0.2
    ER_{113}  OBJ       0.2999985
    PR_{114}  expansion_budget 56.114107399999995 
    PR_{114}  PR_ub_{114} 1
    PR_{114}  PR_lb_{114} 1
    PR_{114}  OBJ       56.114107399999995 
    ER_{114}  expansion_budget 0.29996849999999997 
    ER_{114}  PR_ub_{114} -0.8
    ER_{114}  ER_lb_{114} 1
    ER_{114}  PR_lb_{114} -0.2
    ER_{114}  OBJ       0.29996849999999997 
    PR_{115}  expansion_budget 56.1219642
    PR_{115}  PR_ub_{115} 1
    PR_{115}  PR_lb_{115} 1
    PR_{115}  OBJ       56.1219642
    ER_{115}  expansion_budget 0.3000105
    ER_{115}  PR_ub_{115} -0.8
    ER_{115}  ER_lb_{115} 1
    ER_{115}  PR_lb_{115} -0.2
    ER_{115}  OBJ       0.3000105
    PR_{116}  expansion_budget 56.115790999999994 
    PR_{116}  PR_ub_{116} 1
    PR_{116}  PR_lb_{116} 1
    PR_{116}  OBJ       56.115790999999994 
    ER_{116}  expansion_budget 0.29997749999999995 
    ER_{116}  PR_ub_{116} -0.8
    ER_{116}  ER_lb_{116} 1
    ER_{116}  PR_lb_{116} -0.2
    ER_{116}  OBJ       0.29997749999999995 
    PR_{117}  expansion_budget 56.121402999999994 
    PR_{117}  PR_ub_{117} 1
    PR_{117}  PR_lb_{117} 1
    PR_{117}  OBJ       56.121402999999994 
    ER_{117}  expansion_budget 0.3000075
    ER_{117}  PR_ub_{117} -0.8
    ER_{117}  ER_lb_{117} 1
    ER_{117}  PR_lb_{117} -0.2
    ER_{117}  OBJ       0.3000075
    PR_{118}  expansion_budget 56.1191582
    PR_{118}  PR_ub_{118} 1
    PR_{118}  PR_lb_{118} 1
    PR_{118}  OBJ       56.1191582
    ER_{118}  expansion_budget 0.29999549999999997 
    ER_{118}  PR_ub_{118} -0.8
    ER_{118}  ER_lb_{118} 1
    ER_{118}  PR_lb_{118} -0.2
    ER_{118}  OBJ       0.29999549999999997 
    PR_{119}  expansion_budget 56.1174746
    PR_{119}  PR_ub_{119} 1
    PR_{119}  PR_lb_{119} 1
    PR_{119}  OBJ       56.1174746
    ER_{119}  expansion_budget 0.2999865
    ER_{119}  PR_ub_{119} -0.8
    ER_{119}  ER_lb_{119} 1
    ER_{119}  PR_lb_{119} -0.2
    ER_{119}  OBJ       0.2999865
    PR_{120}  expansion_budget 56.118035799999994 
    PR_{120}  PR_ub_{120} 1
    PR_{120}  PR_lb_{120} 1
    PR_{120}  OBJ       56.118035799999994 
    ER_{120}  expansion_budget 0.29998949999999996 
    ER_{120}  PR_ub_{120} -0.8
    ER_{120}  ER_lb_{120} 1
    ER_{120}  PR_lb_{120} -0.2
    ER_{120}  OBJ       0.29998949999999996 
    PR_{121}  expansion_budget 56.1135462
    PR_{121}  PR_ub_{121} 1
    PR_{121}  PR_lb_{121} 1
    PR_{121}  OBJ       56.1135462
    ER_{121}  expansion_budget 0.2999655
    ER_{121}  PR_ub_{121} -0.8
    ER_{121}  ER_lb_{121} 1
    ER_{121}  PR_lb_{121} -0.2
    ER_{121}  OBJ       0.2999655
    PR_{122}  expansion_budget 56.1264538
    PR_{122}  PR_ub_{122} 1
    PR_{122}  PR_lb_{122} 1
    PR_{122}  OBJ       56.1264538
    ER_{122}  expansion_budget 0.30003450000000004 
    ER_{122}  PR_ub_{122} -0.8
    ER_{122}  ER_lb_{122} 1
    ER_{122}  PR_lb_{122} -0.2
    ER_{122}  OBJ       0.30003450000000004 
    PR_{123}  expansion_budget 56.124209
    PR_{123}  PR_ub_{123} 1
    PR_{123}  PR_lb_{123} 1
    PR_{123}  OBJ       56.124209
    ER_{123}  expansion_budget 0.3000225
    ER_{123}  PR_ub_{123} -0.8
    ER_{123}  ER_lb_{123} 1
    ER_{123}  PR_lb_{123} -0.2
    ER_{123}  OBJ       0.3000225
    PR_{124}  expansion_budget 56.116913399999994 
    PR_{124}  PR_ub_{124} 1
    PR_{124}  PR_lb_{124} 1
    PR_{124}  OBJ       56.116913399999994 
    ER_{124}  expansion_budget 0.29998349999999996 
    ER_{124}  PR_ub_{124} -0.8
    ER_{124}  ER_lb_{124} 1
    ER_{124}  PR_lb_{124} -0.2
    ER_{124}  OBJ       0.29998349999999996 
RHS
    rhs       expansion_budget 1000
    rhs       PR_ub_{101} 0
    rhs       PR_ub_{102} 0
    rhs       PR_ub_{103} 0
    rhs       PR_ub_{104} 0
    rhs       PR_ub_{105} 0
    rhs       PR_ub_{106} 0
    rhs       PR_ub_{107} 0
    rhs       PR_ub_{108} 0
    rhs       PR_ub_{109} 0
    rhs       PR_ub_{110} 0
    rhs       PR_ub_{111} 0
    rhs       PR_ub_{112} 0
    rhs       PR_ub_{113} 0
    rhs       PR_ub_{114} 0
    rhs       PR_ub_{115} 0
    rhs       PR_ub_{116} 0
    rhs       PR_ub_{117} 0
    rhs       PR_ub_{118} 0
    rhs       PR_ub_{119} 0
    rhs       PR_ub_{120} 0
    rhs       PR_ub_{121} 0
    rhs       PR_ub_{122} 0
    rhs       PR_ub_{123} 0
    rhs       PR_ub_{124} 0
    rhs       ER_lb_{101} 0
    rhs       PR_lb_{101} 0
    rhs       ER_lb_{102} 0
    rhs       PR_lb_{102} 0
    rhs       ER_lb_{103} 0
    rhs       PR_lb_{103} 0
    rhs       ER_lb_{104} 0
    rhs       PR_lb_{104} 0
    rhs       ER_lb_{105} 0
    rhs       PR_lb_{105} 0
    rhs       ER_lb_{106} 0
    rhs       PR_lb_{106} 0
    rhs       ER_lb_{107} 0
    rhs       PR_lb_{107} 0
    rhs       ER_lb_{108} 0
    rhs       PR_lb_{108} 0
    rhs       ER_lb_{109} 0
    rhs       PR_lb_{109} 0
    rhs       ER_lb_{110} 0
    rhs       PR_lb_{110} 0
    rhs       ER_lb_{111} 0
    rhs       PR_lb_{111} 0
    rhs       ER_lb_{112} 0
    rhs       PR_lb_{112} 0
    rhs       ER_lb_{113} 0
    rhs       PR_lb_{113} 0
    rhs       ER_lb_{114} 0
    rhs       PR_lb_{114} 0
    rhs       ER_lb_{115} 0
    rhs       PR_lb_{115} 0
    rhs       ER_lb_{116} 0
    rhs       PR_lb_{116} 0
    rhs       ER_lb_{117} 0
    rhs       PR_lb_{117} 0
    rhs       ER_lb_{118} 0
    rhs       PR_lb_{118} 0
    rhs       ER_lb_{119} 0
    rhs       PR_lb_{119} 0
    rhs       ER_lb_{120} 0
    rhs       PR_lb_{120} 0
    rhs       ER_lb_{121} 0
    rhs       PR_lb_{121} 0
    rhs       ER_lb_{122} 0
    rhs       PR_lb_{122} 0
    rhs       ER_lb_{123} 0
    rhs       PR_lb_{123} 0
    rhs       ER_lb_{124} 0
    rhs       PR_lb_{124} 0
RANGES
BOUNDS
 FR bounds    PR_{101}
 FR bounds    ER_{101}
 FR bounds    PR_{102}
 FR bounds    ER_{102}
 FR bounds    PR_{103}
 FR bounds    ER_{103}
 FR bounds    PR_{104}
 FR bounds    ER_{104}
 FR bounds    PR_{105}
 FR bounds    ER_{105}
 FR bounds    PR_{106}
 FR bounds    ER_{106}
 FR bounds    PR_{107}
 FR bounds    ER_{107}
 FR bounds    PR_{108}
 FR bounds    ER_{108}
 FR bounds    PR_{109}
 FR bounds    ER_{109}
 FR bounds    PR_{110}
 FR bounds    ER_{110}
 FR bounds    PR_{111}
 FR bounds    ER_{111}
 FR bounds    PR_{112}
 FR bounds    ER_{112}
 FR bounds    PR_{113}
 FR bounds    ER_{113}
 FR bounds    PR_{114}
 FR bounds    ER_{114}
 FR bounds    PR_{115}
 FR bounds    ER_{115}
 FR bounds    PR_{116}
 FR bounds    ER_{116}
 FR bounds    PR_{117}
 FR bounds    ER_{117}
 FR bounds    PR_{118}
 FR bounds    ER_{118}
 FR bounds    PR_{119}
 FR bounds    ER_{119}
 FR bounds    PR_{120}
 FR bounds    ER_{120}
 FR bounds    PR_{121}
 FR bounds    ER_{121}
 FR bounds    PR_{122}
 FR bounds    ER_{122}
 FR bounds    PR_{123}
 FR bounds    ER_{123}
 FR bounds    PR_{124}
 FR bounds    ER_{124}
ENDATA
